(set-logic QF_S)
(declare-fun var0 () String)
(assert (str.in.re var0 (re.++ (re.union (re.inter (re.union (re.inter (re.union (str.to.re "00") (str.to.re "11")) (re.union (str.to.re "2") (str.to.re "33"))) (re.inter (re.union (str.to.re "444") (str.to.re "55")) (re.union (str.to.re "66") (str.to.re "77")))) (re.union (re.inter (re.union (str.to.re "88") (str.to.re "99")) (re.union (str.to.re "aaa") (str.to.re "b"))) (re.inter (re.union (str.to.re "ccc") (str.to.re "d")) (re.union (str.to.re "ee") (str.to.re "f"))))) (re.inter (re.union (re.inter (re.union (str.to.re "g") (str.to.re "hhh")) (re.union (str.to.re "ii") (str.to.re "jjj"))) (re.inter (re.union (str.to.re "kkk") (str.to.re "lll")) (re.union (str.to.re "m") (str.to.re "nn")))) (re.union (re.inter (re.union (str.to.re "o") (str.to.re "ppp")) (re.union (str.to.re "q") (str.to.re "rrr"))) (re.inter (re.union (str.to.re "ss") (str.to.re "tt")) (re.union (str.to.re "uuu") (str.to.re "v")))))) (re.++ (re.union (re.inter (re.union (re.inter (re.union (str.to.re "ww") (str.to.re "xx")) (re.union (str.to.re "yy") (str.to.re "zzz"))) (re.inter (re.union (str.to.re "AAA") (str.to.re "B")) (re.union (str.to.re "CCC") (str.to.re "DD")))) (re.union (re.inter (re.union (str.to.re "EE") (str.to.re "FFF")) (re.union (str.to.re "GG") (str.to.re "H"))) (re.inter (re.union (str.to.re "III") (str.to.re "J")) (re.union (str.to.re "K") (str.to.re "LLL"))))) (re.inter (re.union (re.inter (re.union (str.to.re "MM") (str.to.re "NNN")) (re.union (str.to.re "OOO") (str.to.re "PPP"))) (re.inter (re.union (str.to.re "Q") (str.to.re "RRR")) (re.union (str.to.re "SS") (str.to.re "TT")))) (re.union (re.inter (re.union (str.to.re "U") (str.to.re "VVV")) (re.union (str.to.re "WW") (str.to.re "XXX"))) (re.inter (re.union (str.to.re "Y") (str.to.re "Z")) (re.union (str.to.re "!!!") (str.to.re "'")))))) (re.union (re.inter (re.union (re.inter (re.union (str.to.re "#") (str.to.re "$")) (re.union (str.to.re "%%%") (str.to.re "&&"))) (re.inter (re.union (str.to.re "'") (str.to.re "(")) (re.union (str.to.re "))") (str.to.re "***")))) (re.union (re.inter (re.union (str.to.re "++") (str.to.re ",")) (re.union (str.to.re "--") (str.to.re "..."))) (re.inter (re.union (str.to.re "//") (str.to.re ":::")) (re.union (str.to.re ";") (str.to.re "<<<"))))) (re.inter (re.union (re.inter (re.union (str.to.re "==") (str.to.re ">>>")) (re.union (str.to.re "?") (str.to.re "@@@"))) (re.inter (re.union (str.to.re "[[[") (str.to.re "\\\\\\")) (re.union (str.to.re "]]") (str.to.re "^^")))) (re.union (re.inter (re.union (str.to.re "_") (str.to.re "```")) (re.union (str.to.re "{{") (str.to.re "||"))) (re.inter (re.union (str.to.re "}}}") (str.to.re "~")) (re.union (str.to.re "00") (str.to.re "1"))))))))))
(check-sat)
